set S :=
4573   2452   703    4096   3435   2976   1965   2384   4301   1782   2122
4016   2930   363    3462   1133   631    1864   3679   2115   3982   1250
804    4569   2840   200    1716   4076   4182   435    1      799    3159
512    909    1380   961    871    1202   1076   118    2230   3272   381
454    3302   3311   926    576    3952   1986   1113   1275   3766   394
875    3062   1356   1925   655    2417   3935   466    3736   679    3903
1399   422    138    3985   3368   4248   4422   580    1566   473    1023
1745   248    1038   3535   1831   1405   1366   3807   2414   1777
478    1398   3089   1090   3120   4238   2176   3977   2657   135
2877   2527   3166   3200   2739   4143   2424   4668   2761   1189
2560   3499   3105   4329   2532   286    1190   3928   1684   3389
2138   1425   836    3691   3990   2770   649    2425   3029   277
881    2648   2257   2171   807    1061   1585   882    1057   2754
2094   1609   2769   2346   2528   1822   79     2040   1334   3885;


param lambda:=3987;